211 5
10 10 10 10 10 

0 0 0 0 0 0 1 2 
0 0 0 0 0 0 5 3 5 6 11 12 
6 4 0 0 0 0 3 8 7 4 
6 8 0 0 0 0 2 10 9 
9 6 0 0 0 0 2 8 7 
4 10 0 0 0 0 1 7 
4 8 0 0 0 0 1 13 
7 7 0 0 0 0 1 13 
1 9 0 0 0 0 1 13 
3 7 0 0 0 0 1 13 
9 8 0 0 0 0 1 13 
2 8 0 0 0 0 1 13 
0 0 0 0 0 0 2 14 36 
0 0 0 0 0 0 11 15 17 18 19 22 29 30 31 32 33 34 
9 0 2 0 5 0 2 25 16 
9 0 5 0 10 0 2 24 20 
5 0 10 0 7 0 3 28 25 23 
9 0 10 0 8 0 2 27 24 
9 0 10 0 5 0 2 24 23 
3 0 10 0 9 0 1 21 
9 0 10 0 7 0 1 23 
2 0 8 0 4 0 1 26 
5 0 7 0 10 0 1 35 
3 0 6 0 7 0 1 35 
5 0 10 0 10 0 1 35 
3 0 10 0 9 0 1 35 
8 0 4 0 8 0 1 35 
3 0 8 0 10 0 1 35 
10 0 6 0 7 0 2 35 69 
3 0 10 0 7 0 1 35 
9 0 4 0 8 0 1 35 
3 0 6 0 7 0 1 35 
2 0 6 0 5 0 1 35 
3 0 8 0 7 0 1 35 
0 0 0 0 0 0 1 72 
0 0 0 0 0 0 5 37 38 39 40 41 
1 0 0 0 0 3 2 43 42 
3 0 0 0 0 5 2 43 42 
9 0 0 0 0 8 2 43 42 
4 0 0 0 0 8 2 43 42 
5 0 0 0 0 10 3 43 42 158 
9 0 0 0 0 9 3 46 45 44 
7 0 0 0 0 9 2 45 44 
4 0 0 0 0 8 1 47 
1 0 0 0 0 5 1 47 
10 0 0 0 0 10 1 47 
0 0 0 0 0 0 2 48 60 
0 0 0 0 0 0 5 49 50 53 54 62 
2 0 0 5 0 0 3 58 52 51 
9 0 0 7 0 0 3 58 55 51 
5 0 0 9 0 0 2 57 56 
6 0 0 6 0 0 1 55 
2 0 0 10 0 0 1 56 
8 0 0 10 0 0 1 55 
10 0 0 7 0 0 1 59 
7 0 0 6 0 0 1 59 
5 0 0 5 0 0 1 59 
4 0 0 10 0 0 1 59 
0 0 0 0 0 0 1 72 
0 0 0 0 0 0 4 61 62 63 64 
10 0 0 0 0 5 4 67 66 65 188 
1 0 0 0 0 7 3 67 66 65 
5 0 0 0 0 9 3 67 66 65 
6 0 0 0 0 5 2 67 66 
9 0 0 0 0 10 3 70 69 68 
1 0 0 0 0 9 2 70 68 
3 0 0 0 0 10 2 69 68 
2 0 0 0 0 4 1 71 
9 0 0 0 0 7 1 71 
5 0 0 0 0 9 1 71 
0 0 0 0 0 0 1 72 
0 0 0 0 0 0 4 73 95 107 129 
0 0 0 0 0 0 5 74 75 76 78 81 
1 0 5 0 8 0 4 93 86 82 79 
1 0 10 0 6 0 3 87 82 77 
2 0 8 0 9 0 4 92 86 82 80 
5 0 5 0 5 0 3 93 92 80 
1 0 8 0 10 0 4 92 85 82 206 
1 0 7 0 8 0 2 92 80 
5 0 6 0 4 0 4 90 85 84 83 
7 0 10 0 10 0 5 93 92 89 88 86 
2 0 10 0 10 0 3 90 84 83 
6 0 6 0 10 0 2 91 88 
10 0 10 0 7 0 1 89 
4 0 5 0 9 0 1 89 
6 0 7 0 6 0 1 90 
7 0 8 0 3 0 1 88 
10 0 5 0 9 0 1 94 
9 0 9 0 8 0 1 94 
8 0 5 0 8 0 1 94 
8 0 10 0 8 0 1 94 
3 0 9 0 5 0 1 94 
8 0 7 0 7 0 1 94 
0 0 0 0 0 0 1 211 
0 0 0 0 0 0 4 96 97 98 99 
3 0 0 0 0 3 2 101 100 
1 0 0 0 0 9 2 101 100 
10 0 0 0 0 8 2 101 100 
7 0 0 0 0 6 2 101 100 
5 0 0 0 0 9 4 105 104 103 102 
8 0 0 0 0 6 4 105 104 103 102 
8 0 0 0 0 6 1 106 
5 0 0 0 0 10 1 106 
8 0 0 0 0 8 2 106 123 
5 0 0 0 0 10 1 106 
0 0 0 0 0 0 5 151 163 175 187 199 
0 0 0 0 0 0 5 108 109 110 111 116 
8 8 3 0 0 0 3 119 115 112 
9 6 10 0 0 0 3 119 115 112 
6 9 9 0 0 0 4 127 118 115 113 
8 5 7 0 0 0 5 126 119 118 115 114 
5 10 10 0 0 0 4 127 126 118 114 
9 9 8 0 0 0 2 126 114 
7 9 6 0 0 0 4 124 121 120 117 
5 5 10 0 0 0 4 124 121 120 117 
8 10 5 0 0 0 4 127 126 119 118 
4 7 10 0 0 0 2 125 123 
6 4 10 0 0 0 2 124 122 
3 7 6 0 0 0 2 123 122 
2 7 10 0 0 0 1 122 
8 10 4 0 0 0 1 122 
2 10 2 0 0 0 1 128 
2 9 6 0 0 0 2 128 161 
7 10 9 0 0 0 1 128 
6 7 8 0 0 0 1 128 
2 5 9 0 0 0 1 128 
2 3 8 0 0 0 1 128 
0 0 0 0 0 0 1 211 
0 0 0 0 0 0 8 130 131 132 134 135 136 142 149 
4 0 3 0 1 0 4 148 146 137 133 
6 0 6 0 7 0 6 147 146 145 144 141 137 
8 0 7 0 8 0 4 147 145 144 140 
6 0 8 0 3 0 3 145 144 138 
7 0 10 0 9 0 3 147 146 137 
5 0 8 0 9 0 3 146 145 139 
8 0 10 0 8 0 1 137 
5 0 4 0 9 0 1 139 
5 0 8 0 10 0 1 139 
10 0 4 0 10 0 1 143 
10 0 9 0 5 0 1 143 
3 0 7 0 6 0 1 143 
9 0 8 0 9 0 1 144 
6 0 9 0 8 0 2 150 194 
4 0 9 0 8 0 1 150 
2 0 7 0 7 0 1 150 
6 0 8 0 3 0 1 150 
7 0 10 0 10 0 1 150 
8 0 8 0 10 0 1 150 
3 0 7 0 10 0 1 150 
0 0 0 0 0 0 1 211 
0 0 0 0 0 0 5 152 153 154 156 157 
7 0 2 0 0 0 2 161 155 
5 0 5 0 0 0 2 159 155 
7 0 8 0 0 0 2 159 155 
7 0 7 0 0 0 2 158 173 
10 0 10 0 0 0 1 160 
2 0 10 0 0 0 1 158 
7 0 6 0 0 0 1 162 
2 0 9 0 0 0 1 162 
10 0 8 0 0 0 1 162 
9 0 10 0 0 0 1 162 
0 0 0 0 0 0 1 211 
0 0 0 0 0 0 6 164 167 168 171 172 173 
4 0 0 0 0 3 4 170 166 165 182 
7 0 0 0 0 8 1 169 
1 0 0 0 0 8 1 169 
8 0 0 0 0 3 1 169 
7 0 0 0 0 10 1 169 
9 0 0 0 0 9 1 174 
2 0 0 0 0 9 1 174 
3 0 0 0 0 10 1 174 
2 0 0 0 0 5 1 174 
7 0 0 0 0 10 1 174 
0 0 0 0 0 0 1 211 
0 0 0 0 0 0 4 176 177 179 185 
4 0 0 0 0 5 3 184 183 182 
3 0 0 0 0 6 1 178 
9 0 0 0 0 7 1 180 
3 0 0 0 0 6 1 181 
2 0 0 0 0 8 1 186 
8 0 0 0 0 10 1 186 
2 0 0 0 0 8 1 186 
2 0 0 0 0 9 1 186 
10 0 0 0 0 10 2 186 207 
9 0 0 0 0 6 1 186 
0 0 0 0 0 0 1 211 
0 0 0 0 0 0 5 188 189 191 192 197 
3 0 0 0 0 6 4 196 195 194 193 
2 0 0 0 0 9 1 190 
5 0 0 0 0 3 2 194 201 
6 0 0 0 0 8 1 193 
6 0 0 0 0 10 1 193 
7 0 0 0 0 8 1 198 
6 0 0 0 0 10 1 198 
1 0 0 0 0 5 1 198 
5 0 0 0 0 7 1 198 
3 0 0 0 0 9 1 198 
0 0 0 0 0 0 1 211 
0 0 0 0 0 0 5 200 202 203 208 209 
9 0 3 0 0 0 2 207 201 
8 0 9 0 0 0 2 206 205 
9 0 1 0 0 0 1 204 
9 0 9 0 0 0 1 204 
7 0 9 0 0 0 1 210 
1 0 10 0 0 0 1 210 
10 0 10 0 0 0 1 210 
1 0 9 0 0 0 1 210 
8 0 7 0 0 0 1 210 
9 0 8 0 0 0 1 210 
0 0 0 0 0 0 1 211 
0 0 0 0 0 0 0 
